NAME: tsp30-46
TYPE: TSP
DIMENSION: 30
EDGE_WEIGHT_TYPE: EUC_2D
NODE_COORD_SECTION
0 80 35
1 56 44
2 6 87
3 10 99
4 72 4
5 50 25
6 17 58
7 30 86
8 51 79
9 79 24
10 91 95
11 80 90
12 61 12
13 16 70
14 100 57
15 36 95
16 37 16
17 99 31
18 28 25
19 65 12
20 81 96
21 35 99
22 42 67
23 21 69
24 34 54
25 57 86
26 75 35
27 51 14
28 31 20
29 65 83
EOF